200,161
681,286
644,169
808,279
664,430
668,432
713,613
681,526
899,564
1194,572
966,498
1071,406
713,613
464,833
552,805
1101,406
899,564
533,862
799,388
778,336
737,51
644,169
523,188
326,350
814,474
753,354
751,309
664,430
646,454
